p cnf 100 52
r 0.109 100 0
e 50 0
r 0.69 99 0
e 49 0
r 0.332 98 0
e 48 0
r 0.634 97 0
e 47 0
r 0.048 96 0
e 46 0
r 0.105 95 0
e 45 0
r 0.581 94 0
e 44 0
r 0.484 93 0
e 43 0
r 0.353 92 0
e 42 0
r 0.826 91 0
e 41 0
r 0.608 90 0
e 40 0
r 0.067 89 0
e 39 0
r 0.295 88 0
e 38 0
r 0.692 87 0
e 37 0
r 0.703 86 0
e 36 0
r 0.914 85 0
e 35 0
r 0.162 84 0
e 34 0
r 0.611 83 0
e 33 0
r 0.296 82 0
e 32 0
r 0.07 81 0
e 31 0
r 0.855 80 0
e 30 0
r 0.963 79 0
e 29 0
r 0.138 78 0
e 28 0
r 0.467 77 0
e 27 0
r 0.773 76 0
e 26 0
r 0.594 75 0
e 25 0
r 0.127 74 0
e 24 0
r 0.507 73 0
e 23 0
r 0.718 72 0
e 22 0
r 0.058 71 0
e 21 0
r 0.899 70 0
e 20 0
r 0.015 69 0
e 19 0
r 0.217 68 0
e 18 0
r 0.84 67 0
e 17 0
r 0.534 66 0
e 16 0
r 0.464 65 0
e 15 0
r 0.155 64 0
e 14 0
r 0.352 63 0
e 13 0
r 0.664 62 0
e 12 0
r 0.573 61 0
e 11 0
r 0.538 60 0
e 10 0
r 0.295 59 0
e 9 0
r 0.912 58 0
e 8 0
r 0.075 57 0
e 7 0
r 0.039 56 0
e 6 0
r 0.023 55 0
e 5 0
r 0.986 54 0
e 4 0
r 0.387 53 0
e 3 0
r 0.043 52 0
e 2 0
r 0.708 51 0
e 1 0
-50 0
50 99 -49 -98 -48 0
49 98 -48 -97 -47 0
48 97 -47 -96 -46 0
47 96 -46 -95 -45 0
46 95 -45 -94 -44 0
45 94 -44 -93 -43 0
44 93 -43 -92 -42 0
43 92 -42 -91 -41 0
42 91 -41 -90 -40 0
41 90 -40 -89 -39 0
40 89 -39 -88 -38 0
39 88 -38 -87 -37 0
38 87 -37 -86 -36 0
37 86 -36 -85 -35 0
36 85 -35 -84 -34 0
35 84 -34 -83 -33 0
34 83 -33 -82 -32 0
33 82 -32 -81 -31 0
32 81 -31 -80 -30 0
31 80 -30 -79 -29 0
30 79 -29 -78 -28 0
29 78 -28 -77 -27 0
28 77 -27 -76 -26 0
27 76 -26 -75 -25 0
26 75 -25 -74 -24 0
25 74 -24 -73 -23 0
24 73 -23 -72 -22 0
23 72 -22 -71 -21 0
22 71 -21 -70 -20 0
21 70 -20 -69 -19 0
20 69 -19 -68 -18 0
19 68 -18 -67 -17 0
18 67 -17 -66 -16 0
17 66 -16 -65 -15 0
16 65 -15 -64 -14 0
15 64 -14 -63 -13 0
14 63 -13 -62 -12 0
13 62 -12 -61 -11 0
12 61 -11 -60 -10 0
11 60 -10 -59 -9 0
10 59 -9 -58 -8 0
9 58 -8 -57 -7 0
8 57 -7 -56 -6 0
7 56 -6 -55 -5 0
6 55 -5 -54 -4 0
5 54 -4 -53 -3 0
4 53 -3 -52 -2 0
3 52 -2 -51 -1 0
2 1 0
2 -1 0
-2 1 0
